NAME /Users/henri/Research/solvers/instances/idol-instances/robust/collection/cbp_Subramanyam_et_al_2020/CapBud_N10_10/models/uncertain_technology_matrix/
ROWS
 N  OBJ
 L  capacity
 L  c_775
 L  c_776
 L  c_777
 L  c_778
 L  c_779
 L  c_780
 L  c_781
 L  c_782
 L  c_783
 L  c_784
COLUMNS
    MARKER    'MARKER'                 'INTORG'
    x_0        OBJ        -6.30237
    x_0        c_775      1
    x_0        capacity   1.26047
    x_1        OBJ        -4.56599
    x_1        c_776      1
    x_1        capacity   0.913198
    x_2        OBJ        -6.11792
    x_2        c_777      1
    x_2        capacity   1.22358
    x_3        OBJ        -5.81019
    x_3        c_778      1
    x_3        capacity   1.16204
    x_4        OBJ        -7.71289
    x_4        c_779      1
    x_4        capacity   1.54258
    x_5        OBJ        -5.51549
    x_5        c_780      1
    x_5        capacity   1.1031
    x_6        OBJ        -5.59937
    x_6        c_781      1
    x_6        capacity   1.11987
    x_7        OBJ        -5.91774
    x_7        c_782      1
    x_7        capacity   1.18355
    x_8        OBJ        -2.18413
    x_8        c_783      1
    x_8        capacity   0.436827
    x_9        OBJ        -6.83489
    x_9        c_784      1
    x_9        capacity   1.36698
    y_0        OBJ        -5.04189
    y_0        c_775      1
    y_0        capacity   1.26047
    y_1        OBJ        -3.65279
    y_1        c_776      1
    y_1        capacity   0.913198
    y_2        OBJ        -4.89433
    y_2        c_777      1
    y_2        capacity   1.22358
    y_3        OBJ        -4.64815
    y_3        c_778      1
    y_3        capacity   1.16204
    y_4        OBJ        -6.17031
    y_4        c_779      1
    y_4        capacity   1.54258
    y_5        OBJ        -4.41239
    y_5        c_780      1
    y_5        capacity   1.1031
    y_6        OBJ        -4.4795
    y_6        c_781      1
    y_6        capacity   1.11987
    y_7        OBJ        -4.73419
    y_7        c_782      1
    y_7        capacity   1.18355
    y_8        OBJ        -1.74731
    y_8        c_783      1
    y_8        capacity   0.436827
    y_9        OBJ        -5.46792
    y_9        c_784      1
    y_9        capacity   1.36698
    MARKER    'MARKER'                 'INTEND'
RHS
    RHS       capacity   28.2805
    RHS       c_775      1
    RHS       c_776      1
    RHS       c_777      1
    RHS       c_778      1
    RHS       c_779      1
    RHS       c_780      1
    RHS       c_781      1
    RHS       c_782      1
    RHS       c_783      1
    RHS       c_784      1
BOUNDS
 LI BND       x_0        0
 UI BND       x_0        1
 LI BND       x_1        0
 UI BND       x_1        1
 LI BND       x_2        0
 UI BND       x_2        1
 LI BND       x_3        0
 UI BND       x_3        1
 LI BND       x_4        0
 UI BND       x_4        1
 LI BND       x_5        0
 UI BND       x_5        1
 LI BND       x_6        0
 UI BND       x_6        1
 LI BND       x_7        0
 UI BND       x_7        1
 LI BND       x_8        0
 UI BND       x_8        1
 LI BND       x_9        0
 UI BND       x_9        1
 LI BND       y_0        0
 UI BND       y_0        1
 LI BND       y_1        0
 UI BND       y_1        1
 LI BND       y_2        0
 UI BND       y_2        1
 LI BND       y_3        0
 UI BND       y_3        1
 LI BND       y_4        0
 UI BND       y_4        1
 LI BND       y_5        0
 UI BND       y_5        1
 LI BND       y_6        0
 UI BND       y_6        1
 LI BND       y_7        0
 UI BND       y_7        1
 LI BND       y_8        0
 UI BND       y_8        1
 LI BND       y_9        0
 UI BND       y_9        1
ENDATA
